peakDumbCharging = 11100; 
Machine = anon_enum(16); 
machineSpeed = [3700,3700,3700,3700,3700,3700,3700,3700,3700,3700,3700,3700,3700,3700,3700,3700]; 
machineLoad = [3700,3700,3700,3700,3700,3700,3700,3700,3700,3700,3700,3700,3700,3700,3700,3700]; 
Car = anon_enum(7); 
demandCar = [6760,4600,2080,4320,19520,25360,28520]; 
arrivalCar = [71,67,67,61,41,39,34]; 
departureCar = [74,71,69,63,54,50,60]; 
